
Gurobi 8.1.0 (mac64, Python) logging started Tue Mar  5 22:35:23 2019

Academic license - for non-commercial use only

Gurobi 8.1.0 (mac64, Python) logging started Wed Mar  6 10:38:46 2019

Academic license - for non-commercial use only

Gurobi 8.1.0 (mac64, Python) logging started Wed Mar  6 10:53:03 2019

Academic license - for non-commercial use only

Gurobi 8.1.0 (mac64, Python) logging started Wed Mar  6 10:55:42 2019

Academic license - for non-commercial use only

Gurobi 8.1.0 (mac64, Python) logging started Wed Mar  6 11:23:43 2019

Academic license - for non-commercial use only

Gurobi 8.1.0 (mac64, Python) logging started Wed Mar  6 11:25:33 2019

Academic license - for non-commercial use only

Gurobi 8.1.0 (mac64, Python) logging started Wed Mar  6 11:27:28 2019

Academic license - for non-commercial use only

Gurobi 8.1.0 (mac64, Python) logging started Wed Mar  6 11:29:23 2019

Academic license - for non-commercial use only

Gurobi 8.1.0 (mac64, Python) logging started Wed Mar  6 11:30:53 2019

Academic license - for non-commercial use only

Gurobi 8.1.0 (mac64, Python) logging started Wed Mar  6 11:49:37 2019

Academic license - for non-commercial use only
